\Problem name: compact

Minimize
OBJROW: C
Subject To
ord(0,1):  x(0,0) - x(0,1) >= 3
ord(0,2):  - x(0,0) + x(0,2) >= 3
ord(1,1):  - x(1,0) + x(1,1) >= 9
ord(1,2):  - x(1,1) + x(1,2) >= 6
ord(2,1):  - x(2,0) + x(2,1) >= 3
ord(2,2):  - x(2,1) + x(2,2) >= 10
triangle2(0,1,0):  y(0,1,0) + y(1,0,0) = 1
triangle2(0,1,1):  y(0,1,1) + y(1,0,1) = 1
triangle2(0,1,2):  y(0,1,2) + y(1,0,2) = 1
triangle2(0,2,0):  y(0,2,0) + y(2,0,0) = 1
triangle2(0,2,1):  y(0,2,1) + y(2,0,1) = 1
triangle2(0,2,2):  y(0,2,2) + y(2,0,2) = 1
triangle2(1,2,0):  y(1,2,0) + y(2,1,0) = 1
triangle2(1,2,1):  y(1,2,1) + y(2,1,1) = 1
triangle2(1,2,2):  y(1,2,2) + y(2,1,2) = 1
MCLinV(0,1,0):  x(0,0) - v(0,1,0) - x(1,0) = 9
MCLinV(1,0,0):  - x(0,0) - v(1,0,0) + x(1,0) = 3
MCLin1(0,1,0):  u(0,1,0) >= -0
MCLin2(0,1,0):  -37 y(1,0,0) - u(0,1,0) <= -0
MCLin3(0,1,0):  31 y(1,0,0) + v(0,1,0) - u(0,1,0) <= 31
MCLin4(0,1,0):  31 y(1,0,0) - u(0,1,0) >= -0
MCLin5(0,1,0):  -37 y(1,0,0) + v(0,1,0) - u(0,1,0) >= -37
MCLin6(1,0,0):  u(1,0,0) >= -0
MCLin7(1,0,0):  -43 y(0,1,0) - u(1,0,0) <= -0
MCLin8(1,0,0):  25 y(0,1,0) + v(1,0,0) - u(1,0,0) <= 25
MCLin9(1,0,0):  25 y(0,1,0) - u(1,0,0) >= -0
MCLin10(1,0,0):  -43 y(0,1,0) + v(1,0,0) - u(1,0,0) >= -43
MCLinV(0,1,1):  x(0,1) - v(0,1,1) - x(1,1) = 6
MCLinV(1,0,1):  - x(0,1) - v(1,0,1) + x(1,1) = 3
MCLin1(0,1,1):  u(0,1,1) >= -0
MCLin2(0,1,1):  -46 y(1,0,1) - u(0,1,1) <= -0
MCLin3(0,1,1):  22 y(1,0,1) + v(0,1,1) - u(0,1,1) <= 22
MCLin4(0,1,1):  22 y(1,0,1) - u(0,1,1) >= -0
MCLin5(0,1,1):  -46 y(1,0,1) + v(0,1,1) - u(0,1,1) >= -46
MCLin6(1,0,1):  u(1,0,1) >= -0
MCLin7(1,0,1):  -31 y(0,1,1) - u(1,0,1) <= -0
MCLin8(1,0,1):  37 y(0,1,1) + v(1,0,1) - u(1,0,1) <= 37
MCLin9(1,0,1):  37 y(0,1,1) - u(1,0,1) >= -0
MCLin10(1,0,1):  -31 y(0,1,1) + v(1,0,1) - u(1,0,1) >= -31
MCLinV(0,1,2):  x(0,2) - v(0,1,2) - x(1,2) = 5
MCLinV(1,0,2):  - x(0,2) - v(1,0,2) + x(1,2) = 8
MCLin1(0,1,2):  u(0,1,2) >= -0
MCLin2(0,1,2):  -45 y(1,0,2) - u(0,1,2) <= -0
MCLin3(0,1,2):  23 y(1,0,2) + v(0,1,2) - u(0,1,2) <= 23
MCLin4(0,1,2):  23 y(1,0,2) - u(0,1,2) >= -0
MCLin5(0,1,2):  -45 y(1,0,2) + v(0,1,2) - u(0,1,2) >= -45
MCLin6(1,0,2):  u(1,0,2) >= -0
MCLin7(1,0,2):  -36 y(0,1,2) - u(1,0,2) <= -0
MCLin8(1,0,2):  32 y(0,1,2) + v(1,0,2) - u(1,0,2) <= 32
MCLin9(1,0,2):  32 y(0,1,2) - u(1,0,2) >= -0
MCLin10(1,0,2):  -36 y(0,1,2) + v(1,0,2) - u(1,0,2) >= -36
MCLinV(0,2,0):  x(0,0) - v(0,2,0) - x(2,0) = 3
MCLinV(2,0,0):  - x(0,0) - v(2,0,0) + x(2,0) = 3
MCLin1(0,2,0):  u(0,2,0) >= -0
MCLin2(0,2,0):  -34 y(2,0,0) - u(0,2,0) <= -0
MCLin3(0,2,0):  37 y(2,0,0) + v(0,2,0) - u(0,2,0) <= 37
MCLin4(0,2,0):  37 y(2,0,0) - u(0,2,0) >= -0
MCLin5(0,2,0):  -34 y(2,0,0) + v(0,2,0) - u(0,2,0) >= -34
MCLin6(2,0,0):  u(2,0,0) >= -0
MCLin7(2,0,0):  -43 y(0,2,0) - u(2,0,0) <= -0
MCLin8(2,0,0):  28 y(0,2,0) + v(2,0,0) - u(2,0,0) <= 28
MCLin9(2,0,0):  28 y(0,2,0) - u(2,0,0) >= -0
MCLin10(2,0,0):  -43 y(0,2,0) + v(2,0,0) - u(2,0,0) >= -43
MCLinV(0,2,1):  x(0,1) - v(0,2,1) - x(2,1) = 10
MCLinV(2,0,1):  - x(0,1) - v(2,0,1) + x(2,1) = 3
MCLin1(0,2,1):  u(0,2,1) >= -0
MCLin2(0,2,1):  -47 y(2,0,1) - u(0,2,1) <= -0
MCLin3(0,2,1):  24 y(2,0,1) + v(0,2,1) - u(0,2,1) <= 24
MCLin4(0,2,1):  24 y(2,0,1) - u(0,2,1) >= -0
MCLin5(0,2,1):  -47 y(2,0,1) + v(0,2,1) - u(0,2,1) >= -47
MCLin6(2,0,1):  u(2,0,1) >= -0
MCLin7(2,0,1):  -37 y(0,2,1) - u(2,0,1) <= -0
MCLin8(2,0,1):  34 y(0,2,1) + v(2,0,1) - u(2,0,1) <= 34
MCLin9(2,0,1):  34 y(0,2,1) - u(2,0,1) >= -0
MCLin10(2,0,1):  -37 y(0,2,1) + v(2,0,1) - u(2,0,1) >= -37
MCLinV(0,2,2):  x(0,2) - v(0,2,2) - x(2,2) = 4
MCLinV(2,0,2):  - x(0,2) - v(2,0,2) + x(2,2) = 8
MCLin1(0,2,2):  u(0,2,2) >= -0
MCLin2(0,2,2):  -45 y(2,0,2) - u(0,2,2) <= -0
MCLin3(0,2,2):  26 y(2,0,2) + v(0,2,2) - u(0,2,2) <= 26
MCLin4(0,2,2):  26 y(2,0,2) - u(0,2,2) >= -0
MCLin5(0,2,2):  -45 y(2,0,2) + v(0,2,2) - u(0,2,2) >= -45
MCLin6(2,0,2):  u(2,0,2) >= -0
MCLin7(2,0,2):  -38 y(0,2,2) - u(2,0,2) <= -0
MCLin8(2,0,2):  33 y(0,2,2) + v(2,0,2) - u(2,0,2) <= 33
MCLin9(2,0,2):  33 y(0,2,2) - u(2,0,2) >= -0
MCLin10(2,0,2):  -38 y(0,2,2) + v(2,0,2) - u(2,0,2) >= -38
MCLinV(1,2,0):  x(1,0) - v(1,2,0) - x(2,0) = 3
MCLinV(2,1,0):  - x(1,0) - v(2,1,0) + x(2,0) = 9
MCLin1(1,2,0):  u(1,2,0) >= -0
MCLin2(1,2,0):  -37 y(2,1,0) - u(1,2,0) <= -0
MCLin3(1,2,0):  28 y(2,1,0) + v(1,2,0) - u(1,2,0) <= 28
MCLin4(1,2,0):  28 y(2,1,0) - u(1,2,0) >= -0
MCLin5(1,2,0):  -37 y(2,1,0) + v(1,2,0) - u(1,2,0) >= -37
MCLin6(2,1,0):  u(2,1,0) >= -0
MCLin7(2,1,0):  -40 y(1,2,0) - u(2,1,0) <= -0
MCLin8(2,1,0):  25 y(1,2,0) + v(2,1,0) - u(2,1,0) <= 25
MCLin9(2,1,0):  25 y(1,2,0) - u(2,1,0) >= -0
MCLin10(2,1,0):  -40 y(1,2,0) + v(2,1,0) - u(2,1,0) >= -40
MCLinV(1,2,1):  x(1,1) - v(1,2,1) - x(2,1) = 10
MCLinV(2,1,1):  - x(1,1) - v(2,1,1) + x(2,1) = 6
MCLin1(1,2,1):  u(1,2,1) >= -0
MCLin2(1,2,1):  -38 y(2,1,1) - u(1,2,1) <= -0
MCLin3(1,2,1):  27 y(2,1,1) + v(1,2,1) - u(1,2,1) <= 27
MCLin4(1,2,1):  27 y(2,1,1) - u(1,2,1) >= -0
MCLin5(1,2,1):  -38 y(2,1,1) + v(1,2,1) - u(1,2,1) >= -38
MCLin6(2,1,1):  u(2,1,1) >= -0
MCLin7(2,1,1):  -43 y(1,2,1) - u(2,1,1) <= -0
MCLin8(2,1,1):  22 y(1,2,1) + v(2,1,1) - u(2,1,1) <= 22
MCLin9(2,1,1):  22 y(1,2,1) - u(2,1,1) >= -0
MCLin10(2,1,1):  -43 y(1,2,1) + v(2,1,1) - u(2,1,1) >= -43
MCLinV(1,2,2):  x(1,2) - v(1,2,2) - x(2,2) = 4
MCLinV(2,1,2):  - x(1,2) - v(2,1,2) + x(2,2) = 5
MCLin1(1,2,2):  u(1,2,2) >= -0
MCLin2(1,2,2):  -36 y(2,1,2) - u(1,2,2) <= -0
MCLin3(1,2,2):  29 y(2,1,2) + v(1,2,2) - u(1,2,2) <= 29
MCLin4(1,2,2):  29 y(2,1,2) - u(1,2,2) >= -0
MCLin5(1,2,2):  -36 y(2,1,2) + v(1,2,2) - u(1,2,2) >= -36
MCLin6(2,1,2):  u(2,1,2) >= -0
MCLin7(2,1,2):  -38 y(1,2,2) - u(2,1,2) <= -0
MCLin8(2,1,2):  27 y(1,2,2) + v(2,1,2) - u(2,1,2) <= 27
MCLin9(2,1,2):  27 y(1,2,2) - u(2,1,2) >= -0
MCLin10(2,1,2):  -38 y(1,2,2) + v(2,1,2) - u(2,1,2) >= -38
makespan(0):  C - x(0,2) >= 8
makespan(1):  C - x(1,2) >= 5
makespan(2):  C - x(2,2) >= 4
Bounds
 0 <= C <= 51
 3 <= x(0,0) <= 40
 0 <= y(0,1,0) <= 1
 0 <= y(1,0,0) <= 1
 -37 <= v(0,1,0) <= 31
 -43 <= v(1,0,0) <= 25
 -510 <= u(0,1,0)
 -510 <= u(1,0,0)
 0 <= y(0,2,0) <= 1
 0 <= y(2,0,0) <= 1
 -34 <= v(0,2,0) <= 37
 -43 <= v(2,0,0) <= 28
 -510 <= u(0,2,0)
 -510 <= u(2,0,0)
 0 <= x(1,0) <= 31
 0 <= y(1,2,0) <= 1
 0 <= y(2,1,0) <= 1
 -37 <= v(1,2,0) <= 28
 -40 <= v(2,1,0) <= 25
 -510 <= u(1,2,0)
 -510 <= u(2,1,0)
 0 <= x(2,0) <= 34
 0 <= x(0,1) <= 37
 0 <= y(0,1,1) <= 1
 0 <= y(1,0,1) <= 1
 -46 <= v(0,1,1) <= 22
 -31 <= v(1,0,1) <= 37
 -510 <= u(0,1,1)
 -510 <= u(1,0,1)
 0 <= y(0,2,1) <= 1
 0 <= y(2,0,1) <= 1
 -47 <= v(0,2,1) <= 24
 -37 <= v(2,0,1) <= 34
 -510 <= u(0,2,1)
 -510 <= u(2,0,1)
 9 <= x(1,1) <= 40
 0 <= y(1,2,1) <= 1
 0 <= y(2,1,1) <= 1
 -38 <= v(1,2,1) <= 27
 -43 <= v(2,1,1) <= 22
 -510 <= u(1,2,1)
 -510 <= u(2,1,1)
 3 <= x(2,1) <= 37
 6 <= x(0,2) <= 43
 0 <= y(0,1,2) <= 1
 0 <= y(1,0,2) <= 1
 -45 <= v(0,1,2) <= 23
 -36 <= v(1,0,2) <= 32
 -510 <= u(0,1,2)
 -510 <= u(1,0,2)
 0 <= y(0,2,2) <= 1
 0 <= y(2,0,2) <= 1
 -45 <= v(0,2,2) <= 26
 -38 <= v(2,0,2) <= 33
 -510 <= u(0,2,2)
 -510 <= u(2,0,2)
 15 <= x(1,2) <= 46
 0 <= y(1,2,2) <= 1
 0 <= y(2,1,2) <= 1
 -36 <= v(1,2,2) <= 29
 -38 <= v(2,1,2) <= 27
 -510 <= u(1,2,2)
 -510 <= u(2,1,2)
 13 <= x(2,2) <= 47
Integers
C x(0,0) y(0,1,0) y(1,0,0) v(0,1,0) v(1,0,0) u(0,1,0) u(1,0,0) y(0,2,0) y(2,0,0) 
v(0,2,0) v(2,0,0) u(0,2,0) u(2,0,0) x(1,0) y(1,2,0) y(2,1,0) v(1,2,0) v(2,1,0) u(1,2,0) 
u(2,1,0) x(2,0) x(0,1) y(0,1,1) y(1,0,1) v(0,1,1) v(1,0,1) u(0,1,1) u(1,0,1) y(0,2,1) 
y(2,0,1) v(0,2,1) v(2,0,1) u(0,2,1) u(2,0,1) x(1,1) y(1,2,1) y(2,1,1) v(1,2,1) v(2,1,1) 
u(1,2,1) u(2,1,1) x(2,1) x(0,2) y(0,1,2) y(1,0,2) v(0,1,2) v(1,0,2) u(0,1,2) u(1,0,2) 
y(0,2,2) y(2,0,2) v(0,2,2) v(2,0,2) u(0,2,2) u(2,0,2) x(1,2) y(1,2,2) y(2,1,2) v(1,2,2) 
v(2,1,2) u(1,2,2) u(2,1,2) x(2,2) 
End
